57104
53, 23, 21, 17, 48, 19, 44, 38, 8, 41, 32, 13, 5, 35, 24, 50, 20, 37, 7, 51, 40, 43, 3, 28, 6, 55, 49, 26, 47, 30, 4, 18, 12, 16, 10, 22, 29, 46, 39, 36, 15, 52, 11, 31, 25, 27, 1, 33, 42, 45, 2, 14, 9, 54, 34
